20190630 392959.55 304176.85
20171219 393000.00 303800.00
20170630 392959.55 212274.27
20170620 392959.55 212275.61
20161222 196479.77 106137.81
20161202 196479.77 94117.60
20151231 150729.24 94100.78
20150803 150729.24 94124.70
